/* Problème 2.1 */

/* Objective function */
min: +z1 +z2 +z3 +z4;

/* Constraints */
+y1 +y2 +y3 +y4 = 1;
-45 y1 +36 y2 +39 y3 -43 y4 <= 0;
+39 y1 +13 y2 -19 y3 -48 y4 <= 0;
+13 y1 -11 y2 +5 y3 -38 y4 <= 0;
+44 y1 -24 y2 -17 y3 -32 y4 <= 0;
-32 y1 +4 y2 +50 y3 -48 y4 <= 0;
+5 y1 -43 y2 +49 y3 -22 y4 <= 0;
+48 y1 +y2 -23 y3 -31 y4 <= 0;
+15 y1 -32 y2 +33 y3 -24 y4 <= 0;
+26 y1 -50 y2 +32 y3 -22 y4 <= 0;
+38 y1 -27 y2 -42 y3 +23 y4 <= 0;
+50 y1 -46 y2 +14 y3 -25 y4 <= 0;
+18 y1 -24 y2 +34 y3 -28 y4 <= 0;
+29 y1 -35 y2 -27 y3 +25 y4 <= 0;
+48 y1 -25 y2 -26 y3 +2 y4 <= 0;
+49 y1 -41 y2 -45 y3 +36 y4 <= 0;
+13 y1 -41 y2 +19 y3 +9 y4 <= 0;
-48 y1 +9 y2 +5 y3 +26 y4 <= 0;
-40 y1 -14 y2 +8 y3 +38 y4 <= 0;
-14 y1 -5 y2 -23 y3 +38 y4 <= 0;
-27 y1 -9 y2 +24 y3 +12 y4 <= 0;
-34 y1 -13 y2 +y3 +46 y4 <= 0;
+43 y1 +4 y2 -34 y3 -13 y4 <= 0;
-y1 +z1 >= -0.251630622695;
+y1 +z1 >= 0.251630622695;
-y2 +z2 >= -0.249794254689;
+y2 +z2 >= 0.249794254689;
-y3 +z3 >= -0.247370870172;
+y3 +z3 >= 0.247370870172;
-y4 +z4 >= -0.251204252444;
+y4 +z4 >= 0.251204252444;
